6 35
1 6
6 6
6 6
34 13
10 7
10 7
23 7
1 7
6 7
6 7
10 62
10 33
13 33
7 22
4 15
6 8
6 8
6 8
6 8
24 8
24 7
4 7
30 7
6 34
6 34
8 17
10 17
8 16
15 16
5 6
5 6
5 6
9 21
4 21
5 23
5 23
8 6
15 6
8 5
8 5
10 5
5 4
7 2
7 2
7 2
6 2
6 2
6 4
6 4
6 4
17 4
17 4
5 8
5 8
4 4
4 4
9 4
9 4
9 4
17 8
4 6
4 8
4 2
5 2
4 25
6 25
2 6
18 10
11 24
7 9
9 5
17 5
2 4
2 4
20 8
7 42
8 14
18 14
5 9
8 7
7 7
26 20
5 7
3 7
3 15
8 2
4 19
6 19
5 25
8 13
7 13
3 8
3 5
2 8
7 12
37 7
